p wcnf 9 35 143
143 1 2 0
143 1 4 0
143 1 6 0
143 1 7 0
143 1 8 0
143 2 3 0
143 2 5 0
143 2 6 0
143 2 8 0
143 2 9 0
143 3 4 0
143 3 6 0
143 3 7 0
143 3 8 0
143 3 9 0
143 4 5 0
143 4 7 0
143 4 8 0
143 4 9 0
143 5 6 0
143 5 7 0
143 5 8 0
143 6 7 0
143 7 8 0
143 7 9 0
143 8 9 0
5 -1 0
4 -2 0
4 -3 0
4 -4 0
5 -5 0
5 -6 0
3 -7 0
3 -8 0
5 -9 0
